experiments/knapsack_bounded/knapsack_bounded_15_4.mps.log
Algorithm statistics:
zero_reductions => 38781
max_basis_size => 705
queued_pairs => 0
built_pairs => 43807
reduced_pairs => 39593
eliminated_by_truncation => 122
removed_by_autoreduction => 0
eliminated_by_gcd => 204353
time => 0.028552248
memory => 0.020015306770801544
4ti2 results
4ti2 time => 0.050896303
